NAME          ClpDefau
ROWS
 N  OBJROW
 L  R_184_0
 L  R_184_1
 L  R_184_2
 L  R_184_3
 L  R_184_4
 L  R_184_5
 L  R_184_6
 L  R_184_7
 L  R_184_8
 L  R_184_9
 L  R_184_10
 L  R_184_11
 L  R_184_12
 L  R_184_13
 L  R_184_14
 L  R_184_15
 L  R_184_16
 L  R_184_17
 L  R_184_18
 L  R_184_19
 L  R_184_20
 L  R_184_21
 L  R_184_22
 L  R_184_23
 L  R_184_24
 L  R_184_25
 L  R_184_26
 L  R_184_27
 L  R_184_28
 L  R_184_29
 L  R_184_30
 L  R_184_31
COLUMNS
    x_0       OBJROW     -8.           R_184_1   93.         
    x_0       R_184_3   48.            R_184_4   57.         
    x_0       R_184_5   5.             R_184_7   41.         
    x_0       R_184_9   68.            R_184_10  23.         
    x_0       R_184_11  4.             R_184_12  23.         
    x_0       R_184_13  66.            R_184_14  66.         
    x_0       R_184_15  24.            R_184_17  54.         
    x_0       R_184_18  98.            R_184_19  76.         
    x_0       R_184_20  58.            R_184_21  97.         
    x_0       R_184_22  95.            R_184_23  68.         
    x_0       R_184_24  36.            R_184_26  46.         
    x_0       R_184_27  59.            R_184_29  73.         
    x_0       R_184_30  72.            R_184_31  63.         
    x_1       OBJROW     -12.          R_184_0   42.         
    x_1       R_184_4   99.            R_184_6   91.         
    x_1       R_184_8   65.            R_184_9   76.         
    x_1       R_184_10  94.            R_184_11  66.         
    x_1       R_184_12  88.            R_184_13  10.         
    x_1       R_184_14  44.            R_184_15  25.         
    x_1       R_184_17  74.            R_184_18  35.         
    x_1       R_184_19  88.            R_184_21  67.         
    x_1       R_184_22  35.            R_184_23  27.         
    x_1       R_184_25  92.            R_184_26  8.          
    x_1       R_184_27  23.            R_184_28  4.          
    x_1       R_184_29  9.             R_184_30  94.         
    x_2       OBJROW     -11.          R_184_0   17.         
    x_2       R_184_2   24.            R_184_3   1.          
    x_2       R_184_4   6.             R_184_5   32.         
    x_2       R_184_6   5.             R_184_7   79.         
    x_2       R_184_8   96.            R_184_9   44.         
    x_2       R_184_10  40.            R_184_11  99.         
    x_2       R_184_12  6.             R_184_14  80.         
    x_2       R_184_15  61.            R_184_17  88.         
    x_2       R_184_18  14.            R_184_19  17.         
    x_2       R_184_20  100.           R_184_21  66.         
    x_2       R_184_22  44.            R_184_23  78.         
    x_2       R_184_25  90.            R_184_26  18.         
    x_2       R_184_27  33.            R_184_28  21.         
    x_2       R_184_29  59.            R_184_30  66.         
    x_3       OBJROW     -47.          R_184_0   5.          
    x_3       R_184_2   57.            R_184_3   11.         
    x_3       R_184_4   80.            R_184_5   80.         
    x_3       R_184_6   33.            R_184_7   36.         
    x_3       R_184_8   1.             R_184_9   50.         
    x_3       R_184_10  15.            R_184_11  12.         
    x_3       R_184_12  13.            R_184_13  97.         
    x_3       R_184_14  28.            R_184_15  86.         
    x_3       R_184_16  40.            R_184_17  49.         
    x_3       R_184_18  98.            R_184_20  56.         
    x_3       R_184_21  3.             R_184_22  7.          
    x_3       R_184_25  13.            R_184_26  62.         
    x_3       R_184_27  67.            R_184_29  47.         
    x_3       R_184_30  48.            R_184_31  88.         
    x_4       OBJROW     -22.          R_184_0   14.         
    x_4       R_184_1   100.           R_184_2   3.          
    x_4       R_184_4   82.            R_184_5   27.         
    x_4       R_184_7   1.             R_184_8   48.         
    x_4       R_184_9   93.            R_184_10  97.         
    x_4       R_184_11  15.            R_184_12  51.         
    x_4       R_184_13  18.            R_184_14  51.         
    x_4       R_184_16  16.            R_184_17  43.         
    x_4       R_184_18  28.            R_184_19  4.          
    x_4       R_184_20  61.            R_184_21  93.         
    x_4       R_184_22  38.            R_184_23  59.         
    x_4       R_184_24  48.            R_184_25  68.         
    x_4       R_184_27  94.            R_184_31  30.         
    x_5       OBJROW     -95.          R_184_0   77.         
    x_5       R_184_1   55.            R_184_2   90.         
    x_5       R_184_4   74.            R_184_5   46.         
    x_5       R_184_6   70.            R_184_7   54.         
    x_5       R_184_9   88.            R_184_11  17.         
    x_5       R_184_13  91.            R_184_14  88.         
    x_5       R_184_15  23.            R_184_16  15.         
    x_5       R_184_17  97.            R_184_18  43.         
    x_5       R_184_19  92.            R_184_20  22.         
    x_5       R_184_22  91.            R_184_23  46.         
    x_5       R_184_24  74.            R_184_25  60.         
    x_5       R_184_26  4.             R_184_28  95.         
    x_5       R_184_29  66.            R_184_30  36.         
    x_5       R_184_31  91.         
    x_6       OBJROW     -86.          R_184_0   53.         
    x_6       R_184_1   61.            R_184_2   71.         
    x_6       R_184_3   96.            R_184_5   93.         
    x_6       R_184_6   80.            R_184_7   86.         
    x_6       R_184_8   82.            R_184_10  68.         
    x_6       R_184_11  60.            R_184_12  13.         
    x_6       R_184_13  28.            R_184_14  78.         
    x_6       R_184_15  28.            R_184_17  72.         
    x_6       R_184_18  26.            R_184_19  76.         
    x_6       R_184_20  63.            R_184_22  79.         
    x_6       R_184_23  62.            R_184_24  73.         
    x_6       R_184_25  92.            R_184_26  98.         
    x_6       R_184_27  1.             R_184_29  86.         
    x_6       R_184_30  97.            R_184_31  87.         
    x_7       OBJROW     -40.          R_184_1   65.         
    x_7       R_184_2   11.            R_184_3   45.         
    x_7       R_184_4   97.            R_184_7   81.         
    x_7       R_184_8   93.            R_184_9   21.         
    x_7       R_184_10  60.            R_184_11  20.         
    x_7       R_184_12  72.            R_184_13  1.          
    x_7       R_184_14  69.            R_184_16  27.         
    x_7       R_184_18  84.            R_184_19  89.         
    x_7       R_184_20  39.            R_184_21  41.         
    x_7       R_184_22  83.            R_184_24  83.         
    x_7       R_184_25  12.            R_184_26  27.         
    x_7       R_184_27  68.            R_184_29  65.         
    x_7       R_184_30  40.            R_184_31  59.         
    x_8       OBJROW     -33.          R_184_0   67.         
    x_8       R_184_1   15.            R_184_2   49.         
    x_8       R_184_4   46.            R_184_5   59.         
    x_8       R_184_6   64.            R_184_7   38.         
    x_8       R_184_8   18.            R_184_10  82.         
    x_8       R_184_11  35.            R_184_12  13.         
    x_8       R_184_14  97.            R_184_15  48.         
    x_8       R_184_16  18.            R_184_17  30.         
    x_8       R_184_18  71.            R_184_19  52.         
    x_8       R_184_21  36.            R_184_24  89.         
    x_8       R_184_25  42.            R_184_26  97.         
    x_8       R_184_27  91.            R_184_29  92.         
    x_8       R_184_30  80.            R_184_31  10.         
    x_9       OBJROW     -78.          R_184_0   51.         
    x_9       R_184_1   34.            R_184_3   62.         
    x_9       R_184_4   24.            R_184_5   49.         
    x_9       R_184_6   4.             R_184_7   22.         
    x_9       R_184_8   94.            R_184_9   56.         
    x_9       R_184_10  42.            R_184_11  77.         
    x_9       R_184_12  37.            R_184_13  20.         
    x_9       R_184_14  26.            R_184_16  19.         
    x_9       R_184_17  43.            R_184_18  54.         
    x_9       R_184_19  12.            R_184_20  32.         
    x_9       R_184_21  94.            R_184_22  44.         
    x_9       R_184_24  79.            R_184_25  19.         
    x_9       R_184_26  9.             R_184_27  100.        
    x_9       R_184_28  42.            R_184_29  15.         
    x_9       R_184_30  99.            R_184_31  51.         
    x_10      OBJROW     -28.          R_184_0   7.          
    x_10      R_184_1   61.            R_184_2   41.         
    x_10      R_184_3   80.            R_184_4   76.         
    x_10      R_184_5   86.            R_184_9   53.         
    x_10      R_184_10  58.            R_184_11  14.         
    x_10      R_184_12  76.            R_184_13  88.         
    x_10      R_184_14  23.            R_184_15  40.         
    x_10      R_184_16  91.            R_184_17  14.         
    x_10      R_184_18  29.            R_184_19  19.         
    x_10      R_184_20  12.            R_184_21  84.         
    x_10      R_184_22  61.            R_184_23  62.         
    x_10      R_184_24  4.             R_184_25  65.         
    x_10      R_184_26  7.             R_184_27  1.          
    x_10      R_184_29  88.            R_184_30  31.         
    x_10      R_184_31  63.         
    x_11      OBJROW     -78.          R_184_0   70.         
    x_11      R_184_1   14.            R_184_2   7.          
    x_11      R_184_3   81.            R_184_4   80.         
    x_11      R_184_5   51.            R_184_7   65.         
    x_11      R_184_8   87.            R_184_9   14.         
    x_11      R_184_11  27.            R_184_12  26.         
    x_11      R_184_13  56.            R_184_14  17.         
    x_11      R_184_15  39.            R_184_17  61.         
    x_11      R_184_18  68.            R_184_19  36.         
    x_11      R_184_20  90.            R_184_21  71.         
    x_11      R_184_22  4.             R_184_23  97.         
    x_11      R_184_24  25.            R_184_25  6.          
    x_11      R_184_26  81.            R_184_27  34.         
    x_11      R_184_28  61.            R_184_29  95.         
    x_11      R_184_30  29.         
    x_12      OBJROW     -5.           R_184_0   5.          
    x_12      R_184_1   14.            R_184_2   89.         
    x_12      R_184_3   24.            R_184_4   12.         
    x_12      R_184_7   38.            R_184_9   42.         
    x_12      R_184_10  36.            R_184_12  9.          
    x_12      R_184_13  54.            R_184_14  5.          
    x_12      R_184_15  85.            R_184_17  94.         
    x_12      R_184_18  3.             R_184_19  43.         
    x_12      R_184_20  94.            R_184_21  68.         
    x_12      R_184_22  26.            R_184_23  17.         
    x_12      R_184_24  58.            R_184_27  79.         
    x_12      R_184_28  25.            R_184_29  57.         
    x_12      R_184_30  61.         
    x_13      OBJROW     -75.          R_184_0   10.         
    x_13      R_184_1   78.            R_184_2   61.         
    x_13      R_184_3   79.            R_184_4   74.         
    x_13      R_184_6   40.            R_184_8   39.         
    x_13      R_184_9   4.             R_184_10  41.         
    x_13      R_184_11  69.            R_184_12  93.         
    x_13      R_184_13  57.            R_184_14  61.         
    x_13      R_184_16  75.            R_184_17  28.         
    x_13      R_184_18  78.            R_184_19  93.         
    x_13      R_184_20  76.            R_184_21  36.         
    x_13      R_184_22  64.            R_184_23  31.         
    x_13      R_184_24  39.            R_184_27  80.         
    x_13      R_184_28  43.            R_184_29  90.         
    x_13      R_184_30  53.            R_184_31  28.         
    x_14      OBJROW     -88.          R_184_0   34.         
    x_14      R_184_1   18.            R_184_3   56.         
    x_14      R_184_4   59.            R_184_5   61.         
    x_14      R_184_7   31.            R_184_8   69.         
    x_14      R_184_9   12.            R_184_10  70.         
    x_14      R_184_11  7.             R_184_12  56.         
    x_14      R_184_13  66.            R_184_14  47.         
    x_14      R_184_15  67.            R_184_17  9.          
    x_14      R_184_18  95.            R_184_19  36.         
    x_14      R_184_20  62.            R_184_21  84.         
    x_14      R_184_22  42.            R_184_23  7.          
    x_14      R_184_24  83.            R_184_25  98.         
    x_14      R_184_26  72.            R_184_27  87.         
    x_14      R_184_28  56.            R_184_29  5.          
    x_14      R_184_30  85.            R_184_31  7.          
    x_15      OBJROW     -21.          R_184_1   44.         
    x_15      R_184_2   13.            R_184_3   14.         
    x_15      R_184_4   45.            R_184_5   82.         
    x_15      R_184_6   62.            R_184_8   20.         
    x_15      R_184_9   44.            R_184_10  82.         
    x_15      R_184_11  87.            R_184_13  7.          
    x_15      R_184_15  70.            R_184_16  99.         
    x_15      R_184_17  54.            R_184_18  24.         
    x_15      R_184_19  6.             R_184_20  98.         
    x_15      R_184_23  38.            R_184_24  6.          
    x_15      R_184_26  29.            R_184_27  47.         
    x_15      R_184_28  77.            R_184_30  71.         
    x_15      R_184_31  1.          
RHS
    RHS       R_184_0   575.           R_184_1   241.        
    RHS       R_184_2   672.           R_184_3   447.        
    RHS       R_184_4   755.           R_184_5   827.        
    RHS       R_184_6   386.           R_184_7   213.        
    RHS       R_184_8   698.           R_184_9   689.        
    RHS       R_184_10  700.           R_184_11  572.        
    RHS       R_184_12  597.           R_184_13  289.        
    RHS       R_184_14  318.           R_184_15  597.        
    RHS       R_184_16  292.           R_184_17  630.        
    RHS       R_184_18  541.           R_184_19  214.        
    RHS       R_184_20  745.           R_184_21  347.        
    RHS       R_184_22  688.           R_184_23  610.        
    RHS       R_184_24  607.           R_184_25  773.        
    RHS       R_184_26  823.           R_184_27  616.        
    RHS       R_184_28  326.           R_184_29  667.        
    RHS       R_184_30  768.           R_184_31  290.        
BOUNDS
 UI BOUND     x_0       100.        
 UI BOUND     x_1       100.        
 UI BOUND     x_2       100.        
 UI BOUND     x_3       100.        
 UI BOUND     x_4       100.        
 UI BOUND     x_5       100.        
 UI BOUND     x_6       100.        
 UI BOUND     x_7       100.        
 UI BOUND     x_8       100.        
 UI BOUND     x_9       100.        
 UI BOUND     x_10      100.        
 UI BOUND     x_11      100.        
 UI BOUND     x_12      100.        
 UI BOUND     x_13      100.        
 UI BOUND     x_14      100.        
 UI BOUND     x_15      100.        
ENDATA
